NAME: random-51-19660
TYPE: TSP
COMMENT: size=51 seed=19660
DIMENSION: 104
EDGE_WEIGHT_TYPE: EUC_2D
NODE_COORD_SECTION
+0 620 198
-0 620 198
+1 122 832
-1 212 618
+2 142 668
-2 667 383
+3 328 407
-3 423 769
+4 302 443
-4 961 762
+5 51 393
-5 327 696
+6 755 507
-6 564 648
+7 394 205
-7 308 512
+8 47 569
-8 863 689
+9 401 803
-9 639 106
+10 388 68
-10 451 690
+11 324 137
-11 681 789
+12 473 7
-12 17 356
+13 202 652
-13 119 769
+14 932 751
-14 675 50
+15 625 614
-15 290 856
+16 801 963
-16 716 679
+17 929 277
-17 259 316
+18 891 225
-18 42 483
+19 727 112
-19 263 666
+20 622 832
-20 923 515
+21 577 428
-21 622 773
+22 757 237
-22 232 946
+23 0 890
-23 533 303
+24 213 452
-24 862 638
+25 399 267
-25 898 745
+26 186 294
-26 395 117
+27 11 40
-27 986 443
+28 459 883
-28 352 242
+29 493 586
-29 883 12
+30 764 114
-30 514 465
+31 84 995
-31 547 548
+32 228 346
-32 334 7
+33 235 755
-33 725 426
+34 572 620
-34 892 932
+35 553 859
-35 429 556
+36 403 108
-36 564 205
+37 568 172
-37 586 615
+38 81 771
-38 68 143
+39 63 59
-39 313 324
+40 996 158
-40 89 435
+41 701 318
-41 752 616
+42 891 738
-42 547 123
+43 216 444
-43 181 646
+44 175 508
-44 968 723
+45 563 96
-45 279 288
+46 303 643
-46 440 857
+47 881 372
-47 585 171
+48 559 669
-48 727 151
+49 879 227
-49 1 509
+50 425 865
-50 551 699
+51 175 411
-51 505 669
PRECEDENCE_SECTION
+0 -0
+1 -1
+2 -2
+3 -3
+4 -4
+5 -5
+6 -6
+7 -7
+8 -8
+9 -9
+10 -10
+11 -11
+12 -12
+13 -13
+14 -14
+15 -15
+16 -16
+17 -17
+18 -18
+19 -19
+20 -20
+21 -21
+22 -22
+23 -23
+24 -24
+25 -25
+26 -26
+27 -27
+28 -28
+29 -29
+30 -30
+31 -31
+32 -32
+33 -33
+34 -34
+35 -35
+36 -36
+37 -37
+38 -38
+39 -39
+40 -40
+41 -41
+42 -42
+43 -43
+44 -44
+45 -45
+46 -46
+47 -47
+48 -48
+49 -49
+50 -50
+51 -51
EOF
